c Arquivo convertido de cubic_900.txt
p edge 900 1350
e 0 16
e 0 488
e 0 502
e 1 23
e 1 546
e 1 858
e 2 62
e 2 108
e 2 609
e 3 167
e 3 314
e 3 439
e 4 164
e 4 428
e 4 523
e 5 470
e 5 532
e 5 739
e 6 85
e 6 286
e 6 727
e 7 21
e 7 107
e 7 570
e 8 142
e 8 472
e 8 579
e 9 426
e 9 535
e 9 826
e 10 140
e 10 664
e 10 767
e 11 119
e 11 173
e 11 844
e 12 145
e 12 183
e 12 217
e 13 152
e 13 341
e 13 361
e 14 95
e 14 485
e 14 789
e 15 297
e 15 298
e 15 410
e 16 125
e 16 257
e 17 171
e 17 670
e 17 722
e 18 484
e 18 741
e 18 854
e 19 500
e 19 567
e 19 598
e 20 127
e 20 170
e 20 640
e 21 596
e 21 684
e 22 251
e 22 273
e 22 750
e 23 239
e 23 350
e 24 63
e 24 220
e 24 692
e 25 32
e 25 189
e 25 533
e 26 200
e 26 250
e 26 860
e 27 147
e 27 609
e 27 784
e 28 694
e 28 785
e 28 896
e 29 76
e 29 134
e 29 317
e 30 343
e 30 406
e 30 493
e 31 252
e 31 437
e 31 601
e 32 351
e 32 659
e 33 253
e 33 642
e 33 890
e 34 62
e 34 113
e 34 536
e 35 213
e 35 578
e 35 745
e 36 44
e 36 199
e 36 556
e 37 355
e 37 520
e 37 840
e 38 231
e 38 309
e 38 698
e 39 132
e 39 279
e 39 417
e 40 84
e 40 590
e 40 879
e 41 185
e 41 418
e 41 792
e 42 225
e 42 282
e 42 686
e 43 74
e 43 80
e 43 279
e 44 610
e 44 661
e 45 217
e 45 304
e 45 710
e 46 113
e 46 554
e 46 797
e 47 70
e 47 520
e 47 850
e 48 157
e 48 185
e 48 549
e 49 522
e 49 690
e 49 833
e 50 119
e 50 753
e 50 838
e 51 435
e 51 601
e 51 665
e 52 258
e 52 284
e 52 846
e 53 530
e 53 564
e 53 579
e 54 344
e 54 569
e 54 850
e 55 327
e 55 663
e 55 762
e 56 523
e 56 564
e 56 591
e 57 124
e 57 393
e 57 476
e 58 359
e 58 471
e 58 545
e 59 155
e 59 636
e 59 707
e 60 305
e 60 375
e 60 521
e 61 168
e 61 722
e 61 743
e 62 340
e 63 184
e 63 849
e 64 179
e 64 308
e 64 893
e 65 254
e 65 336
e 65 675
e 66 441
e 66 568
e 66 771
e 67 289
e 67 334
e 67 653
e 68 186
e 68 310
e 68 574
e 69 108
e 69 186
e 69 599
e 70 742
e 70 758
e 71 94
e 71 210
e 71 438
e 72 536
e 72 581
e 72 712
e 73 324
e 73 580
e 73 720
e 74 223
e 74 469
e 75 178
e 75 315
e 75 799
e 76 94
e 76 445
e 77 100
e 77 339
e 77 437
e 78 129
e 78 631
e 78 817
e 79 102
e 79 398
e 79 399
e 80 596
e 80 702
e 81 179
e 81 702
e 81 715
e 82 365
e 82 457
e 82 573
e 83 635
e 83 751
e 83 876
e 84 104
e 84 235
e 85 241
e 85 732
e 86 278
e 86 398
e 86 409
e 87 174
e 87 318
e 87 468
e 88 271
e 88 296
e 88 569
e 89 350
e 89 463
e 89 855
e 90 167
e 90 452
e 90 486
e 91 280
e 91 464
e 91 629
e 92 227
e 92 252
e 92 290
e 93 96
e 93 318
e 93 480
e 94 502
e 95 550
e 95 778
e 96 629
e 96 790
e 97 275
e 97 705
e 97 841
e 98 241
e 98 442
e 98 727
e 99 119
e 99 162
e 99 333
e 100 111
e 100 656
e 101 192
e 101 669
e 101 832
e 102 191
e 102 378
e 103 137
e 103 288
e 103 679
e 104 459
e 104 825
e 105 161
e 105 163
e 105 558
e 106 132
e 106 506
e 106 545
e 107 550
e 107 853
e 108 880
e 109 384
e 109 403
e 109 407
e 110 228
e 110 410
e 110 831
e 111 228
e 111 543
e 112 404
e 112 595
e 112 737
e 113 759
e 114 187
e 114 484
e 114 830
e 115 189
e 115 321
e 115 356
e 116 146
e 116 848
e 116 874
e 117 206
e 117 525
e 117 699
e 118 343
e 118 503
e 118 654
e 120 347
e 120 477
e 120 539
e 121 244
e 121 273
e 121 295
e 122 396
e 122 667
e 122 775
e 123 412
e 123 467
e 123 584
e 124 253
e 124 729
e 125 666
e 125 718
e 126 153
e 126 472
e 126 540
e 127 223
e 127 658
e 128 248
e 128 287
e 128 558
e 129 144
e 129 181
e 130 199
e 130 485
e 130 573
e 131 300
e 131 802
e 131 806
e 132 841
e 133 154
e 133 440
e 133 897
e 134 309
e 134 664
e 135 153
e 135 316
e 135 336
e 136 492
e 136 544
e 136 784
e 137 391
e 137 889
e 138 396
e 138 526
e 138 528
e 139 204
e 139 837
e 139 844
e 140 266
e 140 608
e 141 231
e 141 369
e 141 791
e 142 277
e 142 302
e 143 150
e 143 411
e 143 869
e 144 432
e 144 704
e 145 382
e 145 843
e 146 320
e 146 757
e 147 490
e 147 873
e 148 182
e 148 227
e 148 369
e 149 229
e 149 256
e 149 287
e 150 665
e 150 720
e 151 173
e 151 359
e 151 887
e 152 774
e 152 875
e 153 751
e 154 376
e 154 597
e 155 400
e 155 576
e 156 599
e 156 603
e 156 777
e 157 276
e 157 613
e 158 280
e 158 618
e 158 834
e 159 322
e 159 449
e 159 531
e 160 385
e 160 436
e 160 894
e 161 383
e 161 606
e 162 376
e 162 761
e 163 353
e 163 705
e 164 301
e 164 551
e 165 179
e 165 714
e 165 810
e 166 438
e 166 509
e 166 630
e 167 821
e 168 239
e 168 440
e 169 541
e 169 744
e 169 806
e 170 199
e 170 822
e 171 496
e 171 878
e 172 420
e 172 671
e 172 686
e 173 349
e 174 214
e 174 776
e 175 243
e 175 418
e 175 802
e 176 461
e 176 511
e 176 652
e 177 341
e 177 763
e 177 877
e 178 661
e 178 697
e 180 181
e 180 313
e 180 531
e 181 766
e 182 236
e 182 399
e 183 431
e 183 797
e 184 492
e 184 891
e 185 768
e 186 203
e 187 442
e 187 795
e 188 352
e 188 639
e 188 741
e 189 428
e 190 375
e 190 388
e 190 650
e 191 343
e 191 810
e 192 249
e 192 323
e 193 329
e 193 522
e 193 616
e 194 368
e 194 434
e 194 628
e 195 325
e 195 554
e 195 619
e 196 205
e 196 415
e 196 700
e 197 244
e 197 560
e 197 857
e 198 387
e 198 745
e 198 895
e 200 275
e 200 474
e 201 202
e 201 519
e 201 527
e 202 414
e 202 425
e 203 496
e 203 551
e 204 311
e 204 610
e 205 716
e 205 830
e 206 218
e 206 648
e 207 408
e 207 498
e 207 718
e 208 238
e 208 494
e 208 516
e 209 424
e 209 489
e 209 684
e 210 591
e 210 682
e 211 422
e 211 515
e 211 652
e 212 389
e 212 731
e 212 790
e 213 594
e 213 748
e 214 529
e 214 567
e 215 365
e 215 447
e 215 473
e 216 365
e 216 864
e 216 870
e 217 269
e 218 688
e 218 808
e 219 415
e 219 463
e 219 783
e 220 226
e 220 345
e 221 282
e 221 288
e 221 533
e 222 244
e 222 281
e 222 859
e 223 259
e 224 314
e 224 405
e 224 423
e 225 719
e 225 768
e 226 616
e 226 729
e 227 401
e 228 340
e 229 888
e 229 896
e 230 317
e 230 624
e 230 800
e 231 857
e 232 262
e 232 566
e 232 747
e 233 421
e 233 734
e 233 812
e 234 325
e 234 374
e 234 647
e 235 446
e 235 487
e 236 590
e 236 800
e 237 307
e 237 618
e 237 723
e 238 291
e 238 548
e 239 537
e 240 621
e 240 777
e 240 861
e 241 886
e 242 285
e 242 792
e 242 887
e 243 378
e 243 729
e 245 567
e 245 614
e 245 893
e 246 308
e 246 655
e 246 889
e 247 250
e 247 346
e 247 526
e 248 315
e 248 429
e 249 264
e 249 290
e 250 755
e 251 546
e 251 703
e 252 711
e 253 824
e 254 503
e 254 858
e 255 384
e 255 505
e 255 641
e 256 362
e 256 690
e 257 402
e 257 818
e 258 394
e 258 506
e 259 272
e 259 862
e 260 509
e 260 714
e 260 825
e 261 291
e 261 489
e 261 832
e 262 305
e 262 596
e 263 312
e 263 363
e 263 846
e 264 322
e 264 696
e 265 491
e 265 602
e 265 823
e 266 553
e 266 760
e 267 502
e 267 539
e 267 774
e 268 391
e 268 489
e 268 840
e 269 544
e 269 765
e 270 295
e 270 371
e 270 668
e 271 475
e 271 724
e 272 706
e 272 852
e 273 522
e 274 452
e 274 760
e 274 868
e 275 605
e 276 593
e 276 798
e 277 484
e 277 726
e 278 439
e 278 625
e 279 630
e 280 881
e 281 293
e 281 801
e 282 657
e 283 294
e 283 323
e 283 773
e 284 332
e 284 516
e 285 335
e 285 403
e 286 394
e 286 409
e 287 811
e 288 519
e 289 461
e 289 513
e 290 669
e 291 674
e 292 403
e 292 694
e 292 782
e 293 679
e 293 801
e 294 563
e 294 796
e 295 667
e 296 299
e 296 406
e 297 329
e 297 733
e 298 383
e 298 531
e 299 411
e 299 466
e 300 354
e 300 767
e 301 349
e 301 482
e 302 409
e 302 733
e 303 381
e 303 514
e 303 547
e 304 552
e 304 614
e 305 537
e 306 353
e 306 390
e 306 853
e 307 392
e 307 404
e 308 851
e 309 524
e 310 357
e 310 633
e 311 413
e 311 671
e 312 395
e 312 588
e 313 426
e 313 576
e 314 628
e 315 856
e 316 404
e 316 488
e 317 844
e 318 570
e 319 431
e 319 488
e 319 497
e 320 423
e 320 700
e 321 824
e 321 841
e 322 808
e 323 716
e 324 356
e 324 430
e 325 499
e 326 478
e 326 659
e 326 781
e 327 446
e 327 617
e 328 408
e 328 521
e 328 799
e 329 592
e 330 405
e 330 583
e 330 782
e 331 383
e 331 692
e 331 713
e 332 487
e 332 823
e 333 641
e 333 898
e 334 450
e 334 741
e 335 413
e 335 734
e 336 574
e 337 501
e 337 682
e 337 866
e 338 660
e 338 709
e 338 858
e 339 462
e 339 833
e 340 827
e 341 863
e 342 360
e 342 475
e 342 653
e 344 647
e 344 664
e 345 481
e 345 878
e 346 798
e 346 859
e 347 759
e 347 795
e 348 472
e 348 800
e 348 887
e 349 839
e 350 788
e 351 674
e 351 765
e 352 507
e 352 548
e 353 370
e 354 497
e 354 779
e 355 562
e 355 879
e 356 788
e 357 610
e 357 849
e 358 445
e 358 682
e 358 782
e 359 387
e 360 373
e 360 723
e 361 402
e 361 793
e 362 520
e 362 532
e 363 390
e 363 863
e 364 747
e 364 854
e 364 864
e 366 412
e 366 541
e 366 803
e 367 785
e 367 877
e 367 886
e 368 492
e 368 632
e 369 584
e 370 772
e 370 836
e 371 560
e 371 736
e 372 455
e 372 837
e 372 857
e 373 407
e 373 821
e 374 551
e 374 591
e 375 400
e 376 670
e 377 473
e 377 651
e 377 854
e 378 386
e 379 425
e 379 436
e 379 587
e 380 399
e 380 680
e 380 880
e 381 397
e 381 659
e 382 465
e 382 508
e 384 485
e 385 482
e 385 820
e 386 773
e 386 804
e 387 692
e 388 731
e 388 778
e 389 589
e 389 603
e 390 743
e 391 711
e 392 437
e 392 598
e 393 456
e 393 650
e 394 859
e 395 566
e 395 698
e 396 511
e 397 412
e 397 627
e 398 487
e 400 836
e 401 539
e 401 794
e 402 462
e 405 780
e 406 752
e 407 625
e 408 821
e 410 728
e 411 814
e 413 755
e 414 604
e 414 805
e 415 451
e 416 505
e 416 569
e 416 886
e 417 530
e 417 771
e 418 685
e 419 514
e 419 587
e 419 794
e 420 636
e 420 897
e 421 763
e 421 850
e 422 588
e 422 589
e 423 754
e 424 736
e 424 764
e 425 563
e 426 570
e 427 535
e 427 634
e 427 819
e 428 444
e 429 656
e 429 725
e 430 585
e 430 713
e 431 750
e 432 677
e 432 862
e 433 628
e 433 667
e 433 747
e 434 816
e 434 848
e 435 641
e 435 828
e 436 494
e 438 863
e 439 468
e 440 448
e 441 675
e 441 873
e 442 582
e 443 528
e 443 749
e 443 842
e 444 464
e 444 466
e 445 456
e 446 717
e 447 481
e 447 556
e 448 678
e 448 722
e 449 680
e 449 830
e 450 479
e 450 608
e 451 508
e 451 792
e 452 826
e 453 687
e 453 867
e 453 884
e 454 582
e 454 716
e 454 766
e 455 514
e 455 623
e 456 813
e 457 661
e 457 701
e 458 756
e 458 822
e 458 875
e 459 517
e 459 568
e 460 480
e 460 654
e 460 691
e 461 651
e 462 622
e 463 599
e 464 469
e 465 621
e 465 820
e 466 602
e 467 780
e 467 838
e 468 769
e 469 590
e 470 802
e 470 848
e 471 473
e 471 534
e 474 571
e 474 657
e 475 553
e 476 490
e 476 581
e 477 823
e 477 839
e 478 678
e 478 689
e 479 595
e 479 687
e 480 894
e 481 589
e 482 595
e 483 525
e 483 548
e 483 583
e 486 631
e 486 683
e 490 754
e 491 630
e 491 730
e 493 731
e 493 818
e 494 577
e 495 679
e 495 691
e 495 789
e 496 559
e 497 730
e 498 597
e 498 613
e 499 781
e 499 813
e 500 646
e 500 799
e 501 526
e 501 819
e 503 517
e 504 609
e 504 760
e 504 869
e 505 681
e 506 541
e 507 685
e 507 696
e 508 770
e 509 869
e 510 552
e 510 673
e 510 855
e 511 532
e 512 695
e 512 753
e 512 899
e 513 549
e 513 649
e 515 708
e 515 783
e 516 617
e 517 849
e 518 565
e 518 580
e 518 581
e 519 586
e 521 607
e 523 842
e 524 565
e 524 719
e 525 811
e 527 578
e 527 634
e 528 631
e 529 559
e 529 734
e 530 898
e 533 703
e 534 627
e 534 646
e 535 676
e 536 542
e 537 706
e 538 563
e 538 820
e 538 891
e 540 732
e 540 768
e 542 614
e 542 666
e 543 654
e 543 762
e 544 724
e 545 860
e 546 642
e 547 558
e 547 883
e 549 896
e 550 561
e 552 847
e 553 888
e 554 645
e 555 575
e 555 773
e 555 795
e 556 749
e 557 565
e 557 755
e 557 763
e 559 650
e 560 638
e 561 779
e 561 829
e 562 670
e 562 790
e 564 662
e 566 807
e 568 804
e 571 580
e 571 890
e 572 637
e 572 778
e 572 816
e 573 872
e 574 586
e 575 660
e 575 676
e 576 737
e 577 632
e 577 846
e 578 621
e 579 751
e 582 730
e 583 871
e 584 770
e 585 626
e 585 695
e 586 616
e 587 817
e 588 770
e 592 593
e 592 845
e 593 838
e 594 714
e 594 890
e 597 644
e 598 712
e 600 649
e 600 787
e 600 889
e 601 789
e 602 791
e 603 655
e 604 710
e 604 794
e 605 658
e 605 882
e 606 608
e 606 726
e 607 676
e 607 688
e 611 637
e 611 742
e 611 805
e 612 672
e 612 871
e 612 876
e 613 627
e 615 662
e 615 718
e 615 818
e 617 647
e 618 898
e 619 668
e 619 774
e 620 721
e 620 756
e 620 819
e 622 672
e 622 806
e 623 693
e 623 862
e 624 720
e 624 804
e 625 638
e 626 674
e 626 702
e 629 817
e 632 867
e 633 685
e 633 892
e 634 709
e 635 740
e 635 762
e 636 865
e 637 836
e 638 894
e 639 725
e 639 810
e 640 740
e 640 746
e 642 851
e 643 705
e 643 721
e 643 809
e 644 673
e 644 825
e 645 683
e 645 783
e 646 675
e 648 666
e 648 744
e 649 822
e 651 885
e 652 739
e 653 780
e 655 815
e 656 871
e 657 797
e 658 893
e 660 709
e 662 883
e 663 706
e 663 791
e 665 728
e 668 752
e 669 872
e 671 689
e 672 796
e 673 757
e 677 726
e 677 885
e 678 796
e 680 860
e 681 758
e 681 776
e 683 827
e 684 866
e 686 861
e 687 746
e 688 829
e 689 872
e 690 732
e 691 693
e 693 697
e 694 864
e 695 852
e 696 717
e 697 699
e 698 727
e 699 852
e 700 847
e 701 703
e 701 842
e 704 715
e 704 744
e 707 771
e 707 875
e 708 793
e 708 892
e 710 785
e 711 884
e 712 717
e 713 743
e 715 811
e 719 807
e 721 733
e 723 786
e 724 781
e 725 853
e 728 835
e 735 764
e 735 828
e 735 834
e 736 870
e 737 787
e 738 740
e 738 866
e 738 880
e 739 756
e 742 788
e 745 865
e 746 803
e 748 769
e 748 876
e 749 767
e 750 888
e 752 835
e 753 776
e 754 868
e 757 831
e 758 801
e 759 845
e 761 840
e 761 867
e 764 877
e 765 883
e 766 812
e 769 814
e 772 831
e 772 874
e 775 835
e 775 899
e 777 882
e 779 829
e 784 787
e 786 807
e 786 828
e 793 826
e 798 805
e 803 816
e 808 834
e 809 892
e 809 899
e 812 824
e 813 843
e 814 832
e 815 881
e 815 891
e 827 855
e 833 895
e 837 874
e 839 847
e 843 851
e 845 897
e 856 865
e 856 868
e 861 884
e 870 879
e 873 878
e 881 882
e 885 895
